c FILE: random-n100-d40-c-n100-d40-1.col

p edge 100 1980
e 1 3
e 1 5
e 1 11
e 1 15
e 1 17
e 1 19
e 1 21
e 1 22
e 1 23
e 1 24
e 1 25
e 1 26
e 1 28
e 1 30
e 1 40
e 1 47
e 1 50
e 1 51
e 1 52
e 1 53
e 1 54
e 1 58
e 1 66
e 1 68
e 1 70
e 1 72
e 1 75
e 1 77
e 1 79
e 1 82
e 1 84
e 1 85
e 1 86
e 1 90
e 1 91
e 1 93
e 1 96
e 1 97
e 1 98
e 2 3
e 2 4
e 2 7
e 2 10
e 2 13
e 2 15
e 2 21
e 2 25
e 2 26
e 2 27
e 2 28
e 2 32
e 2 35
e 2 36
e 2 41
e 2 44
e 2 46
e 2 48
e 2 51
e 2 52
e 2 55
e 2 61
e 2 62
e 2 63
e 2 64
e 2 66
e 2 68
e 2 75
e 2 77
e 2 81
e 2 82
e 2 89
e 2 90
e 2 94
e 3 5
e 3 8
e 3 11
e 3 13
e 3 15
e 3 17
e 3 22
e 3 23
e 3 24
e 3 26
e 3 28
e 3 31
e 3 32
e 3 34
e 3 37
e 3 43
e 3 49
e 3 50
e 3 51
e 3 52
e 3 53
e 3 54
e 3 55
e 3 58
e 3 60
e 3 63
e 3 66
e 3 69
e 3 72
e 3 77
e 3 81
e 3 82
e 3 85
e 3 87
e 3 93
e 3 94
e 3 96
e 3 99
e 4 5
e 4 6
e 4 8
e 4 11
e 4 13
e 4 14
e 4 15
e 4 17
e 4 19
e 4 20
e 4 21
e 4 25
e 4 27
e 4 30
e 4 34
e 4 39
e 4 40
e 4 41
e 4 42
e 4 43
e 4 48
e 4 50
e 4 52
e 4 55
e 4 56
e 4 60
e 4 62
e 4 63
e 4 64
e 4 65
e 4 68
e 4 69
e 4 72
e 4 75
e 4 77
e 4 78
e 4 79
e 4 80
e 4 84
e 4 86
e 4 87
e 4 88
e 4 89
e 4 90
e 4 91
e 4 94
e 4 96
e 4 98
e 4 100
e 5 7
e 5 10
e 5 11
e 5 12
e 5 17
e 5 18
e 5 22
e 5 25
e 5 27
e 5 30
e 5 31
e 5 37
e 5 39
e 5 43
e 5 45
e 5 46
e 5 49
e 5 55
e 5 58
e 5 59
e 5 63
e 5 68
e 5 73
e 5 74
e 5 77
e 5 80
e 5 82
e 5 85
e 5 86
e 5 89
e 5 91
e 5 92
e 5 93
e 5 95
e 5 98
e 5 100
e 6 8
e 6 10
e 6 13
e 6 16
e 6 20
e 6 24
e 6 27
e 6 29
e 6 32
e 6 35
e 6 36
e 6 37
e 6 40
e 6 41
e 6 47
e 6 48
e 6 53
e 6 56
e 6 57
e 6 64
e 6 65
e 6 67
e 6 68
e 6 69
e 6 74
e 6 75
e 6 86
e 6 90
e 6 96
e 6 99
e 7 10
e 7 14
e 7 15
e 7 16
e 7 19
e 7 23
e 7 26
e 7 27
e 7 28
e 7 29
e 7 30
e 7 32
e 7 34
e 7 37
e 7 46
e 7 47
e 7 48
e 7 52
e 7 57
e 7 59
e 7 60
e 7 61
e 7 67
e 7 68
e 7 73
e 7 76
e 7 79
e 7 80
e 7 81
e 7 82
e 7 84
e 7 87
e 7 91
e 7 92
e 7 94
e 7 100
e 8 9
e 8 12
e 8 14
e 8 17
e 8 18
e 8 20
e 8 24
e 8 25
e 8 26
e 8 27
e 8 30
e 8 31
e 8 32
e 8 33
e 8 34
e 8 35
e 8 39
e 8 44
e 8 49
e 8 50
e 8 51
e 8 52
e 8 53
e 8 54
e 8 57
e 8 58
e 8 59
e 8 60
e 8 61
e 8 64
e 8 65
e 8 67
e 8 68
e 8 72
e 8 73
e 8 81
e 8 86
e 8 88
e 8 89
e 8 93
e 9 10
e 9 12
e 9 14
e 9 18
e 9 20
e 9 22
e 9 24
e 9 29
e 9 31
e 9 32
e 9 39
e 9 42
e 9 46
e 9 52
e 9 55
e 9 56
e 9 58
e 9 60
e 9 66
e 9 67
e 9 68
e 9 70
e 9 72
e 9 73
e 9 74
e 9 75
e 9 78
e 9 81
e 9 84
e 9 85
e 9 86
e 9 87
e 9 89
e 9 91
e 9 95
e 9 96
e 9 98
e 9 99
e 10 14
e 10 18
e 10 21
e 10 22
e 10 24
e 10 25
e 10 31
e 10 33
e 10 35
e 10 37
e 10 39
e 10 42
e 10 43
e 10 45
e 10 47
e 10 49
e 10 50
e 10 51
e 10 55
e 10 58
e 10 61
e 10 62
e 10 65
e 10 69
e 10 70
e 10 75
e 10 78
e 10 79
e 10 82
e 10 83
e 10 88
e 10 89
e 10 90
e 10 92
e 10 94
e 10 95
e 10 96
e 10 97
e 11 13
e 11 14
e 11 18
e 11 19
e 11 20
e 11 23
e 11 24
e 11 26
e 11 30
e 11 33
e 11 34
e 11 36
e 11 37
e 11 39
e 11 40
e 11 41
e 11 43
e 11 44
e 11 48
e 11 50
e 11 55
e 11 56
e 11 58
e 11 59
e 11 63
e 11 65
e 11 66
e 11 67
e 11 69
e 11 70
e 11 71
e 11 73
e 11 74
e 11 76
e 11 77
e 11 80
e 11 81
e 11 83
e 11 84
e 11 85
e 11 86
e 11 88
e 11 90
e 11 91
e 11 94
e 11 97
e 11 99
e 12 13
e 12 17
e 12 24
e 12 26
e 12 28
e 12 29
e 12 31
e 12 32
e 12 34
e 12 35
e 12 36
e 12 41
e 12 42
e 12 43
e 12 44
e 12 49
e 12 51
e 12 56
e 12 59
e 12 64
e 12 66
e 12 68
e 12 73
e 12 74
e 12 76
e 12 78
e 12 81
e 12 83
e 12 87
e 12 88
e 12 90
e 12 95
e 12 97
e 12 98
e 12 99
e 13 16
e 13 19
e 13 22
e 13 23
e 13 26
e 13 27
e 13 29
e 13 30
e 13 33
e 13 35
e 13 38
e 13 42
e 13 43
e 13 47
e 13 52
e 13 55
e 13 57
e 13 58
e 13 60
e 13 61
e 13 62
e 13 63
e 13 64
e 13 66
e 13 67
e 13 68
e 13 69
e 13 70
e 13 71
e 13 72
e 13 76
e 13 79
e 13 80
e 13 83
e 13 84
e 13 93
e 13 96
e 13 98
e 13 99
e 13 100
e 14 18
e 14 20
e 14 21
e 14 24
e 14 25
e 14 28
e 14 29
e 14 30
e 14 31
e 14 32
e 14 33
e 14 35
e 14 38
e 14 39
e 14 40
e 14 42
e 14 49
e 14 52
e 14 53
e 14 56
e 14 59
e 14 61
e 14 62
e 14 66
e 14 72
e 14 73
e 14 74
e 14 75
e 14 77
e 14 78
e 14 79
e 14 82
e 14 84
e 14 85
e 14 87
e 14 89
e 14 91
e 15 16
e 15 17
e 15 20
e 15 21
e 15 23
e 15 26
e 15 29
e 15 33
e 15 36
e 15 39
e 15 42
e 15 45
e 15 47
e 15 49
e 15 52
e 15 55
e 15 59
e 15 61
e 15 63
e 15 65
e 15 70
e 15 71
e 15 72
e 15 73
e 15 75
e 15 79
e 15 84
e 15 85
e 15 86
e 15 89
e 15 94
e 15 97
e 15 98
e 16 17
e 16 18
e 16 19
e 16 21
e 16 22
e 16 24
e 16 25
e 16 26
e 16 27
e 16 29
e 16 30
e 16 31
e 16 36
e 16 39
e 16 40
e 16 43
e 16 46
e 16 49
e 16 52
e 16 54
e 16 56
e 16 63
e 16 65
e 16 68
e 16 69
e 16 70
e 16 74
e 16 81
e 16 89
e 16 90
e 16 92
e 16 93
e 16 94
e 16 95
e 16 98
e 17 27
e 17 30
e 17 31
e 17 32
e 17 39
e 17 47
e 17 51
e 17 52
e 17 53
e 17 54
e 17 56
e 17 58
e 17 59
e 17 63
e 17 67
e 17 68
e 17 69
e 17 70
e 17 71
e 17 73
e 17 75
e 17 77
e 17 78
e 17 83
e 17 86
e 17 87
e 17 88
e 17 91
e 17 93
e 17 94
e 17 98
e 17 99
e 18 20
e 18 22
e 18 26
e 18 27
e 18 31
e 18 35
e 18 37
e 18 38
e 18 41
e 18 46
e 18 49
e 18 51
e 18 55
e 18 56
e 18 58
e 18 61
e 18 62
e 18 63
e 18 64
e 18 66
e 18 69
e 18 71
e 18 77
e 18 85
e 18 90
e 18 94
e 18 96
e 18 97
e 19 22
e 19 27
e 19 30
e 19 31
e 19 32
e 19 37
e 19 39
e 19 40
e 19 41
e 19 45
e 19 46
e 19 50
e 19 59
e 19 60
e 19 61
e 19 64
e 19 65
e 19 70
e 19 75
e 19 76
e 19 77
e 19 82
e 19 84
e 19 90
e 19 91
e 19 95
e 19 97
e 19 98
e 19 99
e 19 100
e 20 23
e 20 25
e 20 27
e 20 29
e 20 34
e 20 36
e 20 37
e 20 39
e 20 40
e 20 44
e 20 45
e 20 49
e 20 50
e 20 54
e 20 57
e 20 58
e 20 59
e 20 62
e 20 67
e 20 68
e 20 73
e 20 75
e 20 77
e 20 80
e 20 89
e 20 94
e 20 95
e 20 98
e 20 100
e 21 23
e 21 25
e 21 27
e 21 32
e 21 36
e 21 37
e 21 40
e 21 43
e 21 45
e 21 46
e 21 51
e 21 52
e 21 53
e 21 62
e 21 65
e 21 68
e 21 71
e 21 73
e 21 74
e 21 84
e 21 89
e 21 90
e 21 92
e 21 93
e 21 100
e 22 27
e 22 33
e 22 34
e 22 36
e 22 37
e 22 40
e 22 41
e 22 42
e 22 46
e 22 47
e 22 50
e 22 54
e 22 56
e 22 59
e 22 60
e 22 61
e 22 63
e 22 64
e 22 65
e 22 67
e 22 70
e 22 76
e 22 80
e 22 81
e 22 87
e 22 88
e 22 89
e 22 91
e 22 93
e 22 94
e 22 97
e 22 100
e 23 26
e 23 28
e 23 31
e 23 32
e 23 37
e 23 38
e 23 40
e 23 44
e 23 45
e 23 46
e 23 47
e 23 50
e 23 52
e 23 55
e 23 58
e 23 59
e 23 61
e 23 74
e 23 76
e 23 78
e 23 80
e 23 83
e 23 84
e 23 89
e 23 91
e 24 25
e 24 26
e 24 27
e 24 31
e 24 36
e 24 37
e 24 38
e 24 41
e 24 46
e 24 47
e 24 50
e 24 53
e 24 56
e 24 57
e 24 59
e 24 62
e 24 63
e 24 65
e 24 67
e 24 68
e 24 69
e 24 70
e 24 72
e 24 74
e 24 75
e 24 77
e 24 84
e 24 85
e 24 89
e 24 91
e 24 93
e 24 94
e 24 95
e 24 96
e 24 97
e 24 98
e 25 26
e 25 28
e 25 30
e 25 32
e 25 33
e 25 36
e 25 38
e 25 39
e 25 41
e 25 42
e 25 46
e 25 47
e 25 57
e 25 58
e 25 60
e 25 61
e 25 63
e 25 65
e 25 67
e 25 68
e 25 69
e 25 70
e 25 71
e 25 72
e 25 73
e 25 77
e 25 80
e 25 81
e 25 90
e 25 91
e 25 92
e 25 94
e 25 97
e 25 99
e 26 34
e 26 36
e 26 37
e 26 40
e 26 43
e 26 45
e 26 48
e 26 50
e 26 53
e 26 56
e 26 58
e 26 60
e 26 63
e 26 65
e 26 66
e 26 67
e 26 69
e 26 78
e 26 80
e 26 81
e 26 84
e 26 86
e 26 87
e 26 92
e 26 94
e 26 95
e 26 96
e 26 97
e 26 98
e 26 99
e 26 100
e 27 28
e 27 30
e 27 36
e 27 37
e 27 46
e 27 50
e 27 52
e 27 53
e 27 54
e 27 55
e 27 57
e 27 61
e 27 64
e 27 67
e 27 72
e 27 74
e 27 75
e 27 79
e 27 85
e 27 87
e 27 88
e 27 89
e 27 90
e 27 91
e 27 95
e 27 96
e 27 100
e 28 29
e 28 31
e 28 39
e 28 42
e 28 44
e 28 47
e 28 49
e 28 51
e 28 53
e 28 57
e 28 60
e 28 64
e 28 66
e 28 72
e 28 73
e 28 74
e 28 76
e 28 83
e 28 84
e 28 86
e 28 90
e 28 94
e 28 97
e 29 30
e 29 33
e 29 37
e 29 38
e 29 39
e 29 42
e 29 44
e 29 45
e 29 46
e 29 49
e 29 51
e 29 52
e 29 56
e 29 57
e 29 58
e 29 63
e 29 65
e 29 68
e 29 69
e 29 73
e 29 75
e 29 78
e 29 79
e 29 81
e 29 82
e 29 87
e 29 90
e 29 94
e 29 95
e 29 97
e 29 98
e 29 100
e 30 33
e 30 35
e 30 36
e 30 39
e 30 42
e 30 46
e 30 47
e 30 51
e 30 56
e 30 57
e 30 60
e 30 63
e 30 68
e 30 71
e 30 72
e 30 75
e 30 76
e 30 77
e 30 78
e 30 81
e 30 82
e 30 84
e 30 85
e 30 88
e 30 90
e 30 91
e 30 92
e 30 93
e 30 97
e 30 98
e 30 100
e 31 32
e 31 36
e 31 38
e 31 40
e 31 41
e 31 42
e 31 45
e 31 47
e 31 49
e 31 52
e 31 53
e 31 54
e 31 55
e 31 59
e 31 61
e 31 64
e 31 66
e 31 69
e 31 79
e 31 81
e 31 82
e 31 86
e 31 88
e 31 91
e 31 92
e 31 93
e 31 96
e 32 33
e 32 35
e 32 37
e 32 39
e 32 41
e 32 42
e 32 43
e 32 44
e 32 47
e 32 50
e 32 52
e 32 54
e 32 60
e 32 66
e 32 68
e 32 69
e 32 71
e 32 73
e 32 74
e 32 75
e 32 77
e 32 78
e 32 79
e 32 83
e 32 87
e 32 91
e 32 93
e 32 94
e 32 96
e 32 97
e 33 34
e 33 38
e 33 42
e 33 43
e 33 45
e 33 46
e 33 48
e 33 51
e 33 52
e 33 55
e 33 57
e 33 62
e 33 68
e 33 70
e 33 71
e 33 74
e 33 78
e 33 79
e 33 81
e 33 82
e 33 83
e 33 84
e 33 86
e 33 95
e 33 96
e 33 97
e 33 99
e 33 100
e 34 37
e 34 40
e 34 43
e 34 46
e 34 48
e 34 49
e 34 54
e 34 57
e 34 60
e 34 61
e 34 62
e 34 63
e 34 64
e 34 76
e 34 79
e 34 83
e 34 84
e 34 85
e 34 86
e 34 87
e 34 88
e 34 89
e 34 91
e 34 92
e 34 96
e 34 98
e 34 99
e 35 36
e 35 37
e 35 38
e 35 39
e 35 41
e 35 43
e 35 48
e 35 50
e 35 53
e 35 54
e 35 57
e 35 59
e 35 60
e 35 67
e 35 71
e 35 73
e 35 77
e 35 79
e 35 81
e 35 83
e 35 86
e 35 91
e 35 92
e 35 97
e 35 99
e 36 37
e 36 40
e 36 43
e 36 46
e 36 51
e 36 52
e 36 53
e 36 54
e 36 56
e 36 58
e 36 60
e 36 62
e 36 65
e 36 69
e 36 70
e 36 71
e 36 76
e 36 77
e 36 81
e 36 86
e 36 89
e 36 90
e 36 91
e 36 92
e 36 93
e 36 96
e 36 100
e 37 41
e 37 50
e 37 52
e 37 53
e 37 56
e 37 65
e 37 71
e 37 75
e 37 76
e 37 80
e 37 84
e 37 86
e 37 89
e 37 90
e 37 91
e 37 94
e 37 100
e 38 39
e 38 45
e 38 47
e 38 48
e 38 49
e 38 52
e 38 57
e 38 59
e 38 63
e 38 64
e 38 66
e 38 69
e 38 73
e 38 74
e 38 75
e 38 79
e 38 81
e 38 82
e 38 83
e 38 85
e 38 90
e 38 92
e 38 94
e 38 99
e 39 40
e 39 44
e 39 45
e 39 49
e 39 55
e 39 58
e 39 59
e 39 62
e 39 67
e 39 70
e 39 71
e 39 72
e 39 74
e 39 81
e 39 85
e 39 86
e 39 88
e 39 92
e 39 98
e 39 99
e 40 44
e 40 47
e 40 48
e 40 50
e 40 51
e 40 52
e 40 53
e 40 56
e 40 60
e 40 61
e 40 65
e 40 66
e 40 68
e 40 73
e 40 76
e 40 78
e 40 80
e 40 81
e 40 83
e 40 84
e 40 85
e 40 87
e 40 88
e 40 92
e 40 95
e 41 49
e 41 51
e 41 52
e 41 53
e 41 55
e 41 56
e 41 57
e 41 62
e 41 63
e 41 71
e 41 72
e 41 74
e 41 76
e 41 79
e 41 84
e 41 86
e 41 91
e 41 95
e 41 100
e 42 44
e 42 45
e 42 46
e 42 48
e 42 49
e 42 54
e 42 60
e 42 62
e 42 65
e 42 66
e 42 67
e 42 68
e 42 70
e 42 72
e 42 73
e 42 76
e 42 77
e 42 78
e 42 79
e 42 81
e 42 82
e 42 85
e 42 94
e 42 99
e 42 100
e 43 44
e 43 47
e 43 48
e 43 49
e 43 51
e 43 63
e 43 65
e 43 68
e 43 70
e 43 71
e 43 72
e 43 73
e 43 75
e 43 76
e 43 80
e 43 81
e 43 84
e 43 87
e 43 92
e 43 95
e 44 45
e 44 46
e 44 47
e 44 48
e 44 53
e 44 55
e 44 56
e 44 59
e 44 60
e 44 61
e 44 64
e 44 65
e 44 70
e 44 71
e 44 72
e 44 73
e 44 74
e 44 76
e 44 77
e 44 81
e 44 83
e 44 89
e 44 90
e 44 98
e 45 47
e 45 49
e 45 51
e 45 54
e 45 57
e 45 58
e 45 62
e 45 63
e 45 64
e 45 70
e 45 71
e 45 76
e 45 78
e 45 80
e 45 85
e 45 86
e 45 89
e 45 91
e 45 95
e 45 96
e 45 97
e 46 50
e 46 51
e 46 53
e 46 55
e 46 58
e 46 62
e 46 64
e 46 65
e 46 67
e 46 68
e 46 70
e 46 71
e 46 72
e 46 74
e 46 76
e 46 79
e 46 80
e 46 82
e 46 85
e 46 88
e 46 89
e 46 90
e 46 91
e 46 94
e 46 95
e 46 98
e 46 99
e 47 48
e 47 51
e 47 52
e 47 53
e 47 54
e 47 56
e 47 57
e 47 60
e 47 61
e 47 63
e 47 65
e 47 67
e 47 68
e 47 71
e 47 72
e 47 78
e 47 79
e 47 84
e 47 88
e 47 89
e 47 91
e 47 96
e 47 100
e 48 49
e 48 54
e 48 55
e 48 60
e 48 62
e 48 63
e 48 65
e 48 68
e 48 71
e 48 72
e 48 77
e 48 78
e 48 80
e 48 84
e 48 85
e 48 86
e 48 89
e 48 92
e 48 94
e 48 100
e 49 51
e 49 55
e 49 57
e 49 61
e 49 64
e 49 65
e 49 68
e 49 69
e 49 70
e 49 73
e 49 75
e 49 83
e 49 89
e 49 91
e 49 92
e 49 93
e 49 95
e 49 96
e 49 97
e 50 55
e 50 62
e 50 66
e 50 71
e 50 77
e 50 80
e 50 81
e 50 83
e 50 84
e 50 85
e 50 86
e 50 88
e 50 90
e 50 92
e 50 95
e 50 97
e 50 100
e 51 52
e 51 53
e 51 58
e 51 60
e 51 61
e 51 62
e 51 63
e 51 70
e 51 74
e 51 75
e 51 78
e 51 83
e 51 87
e 51 88
e 51 89
e 51 90
e 51 93
e 51 94
e 51 95
e 51 96
e 51 98
e 51 99
e 52 54
e 52 57
e 52 60
e 52 61
e 52 62
e 52 63
e 52 64
e 52 67
e 52 69
e 52 70
e 52 71
e 52 72
e 52 78
e 52 79
e 52 82
e 52 83
e 52 88
e 52 93
e 52 96
e 52 98
e 52 99
e 53 54
e 53 62
e 53 63
e 53 66
e 53 68
e 53 70
e 53 71
e 53 73
e 53 78
e 53 80
e 53 81
e 53 82
e 53 84
e 53 90
e 53 94
e 53 96
e 53 97
e 53 98
e 53 100
e 54 60
e 54 62
e 54 63
e 54 64
e 54 67
e 54 70
e 54 72
e 54 73
e 54 77
e 54 83
e 54 88
e 54 90
e 54 91
e 54 93
e 54 95
e 54 98
e 54 99
e 54 100
e 55 62
e 55 63
e 55 66
e 55 67
e 55 68
e 55 71
e 55 75
e 55 80
e 55 83
e 55 84
e 55 85
e 55 86
e 55 88
e 55 90
e 55 91
e 55 93
e 55 95
e 55 96
e 55 98
e 56 59
e 56 64
e 56 65
e 56 69
e 56 70
e 56 71
e 56 77
e 56 80
e 56 81
e 56 85
e 56 87
e 56 89
e 56 90
e 56 91
e 56 93
e 56 94
e 56 96
e 57 59
e 57 61
e 57 64
e 57 65
e 57 66
e 57 68
e 57 76
e 57 77
e 57 79
e 57 80
e 57 87
e 57 89
e 57 92
e 57 93
e 57 96
e 57 98
e 57 100
e 58 63
e 58 65
e 58 68
e 58 70
e 58 71
e 58 72
e 58 73
e 58 75
e 58 76
e 58 77
e 58 78
e 58 79
e 58 83
e 58 84
e 58 85
e 58 87
e 58 88
e 58 93
e 58 94
e 58 97
e 58 98
e 58 99
e 59 60
e 59 61
e 59 62
e 59 66
e 59 67
e 59 72
e 59 76
e 59 77
e 59 81
e 59 82
e 59 86
e 59 88
e 59 89
e 59 92
e 59 93
e 59 95
e 60 66
e 60 70
e 60 73
e 60 74
e 60 78
e 60 79
e 60 80
e 60 81
e 60 82
e 60 84
e 60 90
e 60 92
e 61 62
e 61 63
e 61 64
e 61 66
e 61 67
e 61 68
e 61 69
e 61 70
e 61 74
e 61 77
e 61 79
e 61 88
e 61 89
e 61 90
e 61 94
e 61 95
e 61 96
e 62 69
e 62 70
e 62 72
e 62 73
e 62 74
e 62 75
e 62 77
e 62 78
e 62 82
e 62 83
e 62 86
e 62 87
e 62 89
e 62 99
e 62 100
e 63 64
e 63 67
e 63 68
e 63 69
e 63 74
e 63 75
e 63 76
e 63 77
e 63 80
e 63 82
e 63 84
e 63 85
e 63 91
e 63 92
e 63 95
e 63 96
e 64 65
e 64 66
e 64 67
e 64 68
e 64 70
e 64 71
e 64 72
e 64 75
e 64 76
e 64 80
e 64 84
e 64 87
e 64 88
e 64 90
e 64 92
e 64 96
e 64 98
e 65 66
e 65 71
e 65 73
e 65 77
e 65 78
e 65 83
e 65 84
e 65 87
e 65 88
e 65 90
e 65 93
e 65 94
e 65 98
e 65 100
e 66 67
e 66 69
e 66 73
e 66 76
e 66 83
e 66 84
e 66 87
e 66 91
e 66 93
e 66 98
e 67 68
e 67 71
e 67 74
e 67 79
e 67 84
e 67 85
e 67 86
e 67 93
e 67 97
e 67 98
e 68 71
e 68 76
e 68 77
e 68 79
e 68 80
e 68 83
e 68 86
e 68 87
e 68 91
e 68 95
e 68 96
e 68 99
e 69 70
e 69 71
e 69 73
e 69 74
e 69 83
e 69 90
e 69 93
e 69 94
e 69 97
e 69 98
e 69 99
e 70 71
e 70 74
e 70 77
e 70 82
e 70 87
e 70 88
e 70 90
e 70 92
e 70 93
e 70 98
e 70 99
e 71 72
e 71 73
e 71 78
e 71 80
e 71 82
e 71 88
e 71 89
e 71 90
e 71 92
e 71 96
e 71 98
e 71 99
e 71 100
e 72 75
e 72 77
e 72 78
e 72 82
e 72 86
e 72 87
e 72 89
e 72 91
e 72 92
e 72 95
e 72 100
e 73 75
e 73 79
e 73 81
e 73 82
e 73 84
e 73 90
e 73 91
e 73 92
e 73 95
e 73 98
e 73 100
e 74 75
e 74 77
e 74 78
e 74 80
e 74 81
e 74 82
e 74 83
e 74 85
e 74 86
e 74 87
e 74 88
e 74 94
e 74 95
e 74 99
e 75 77
e 75 83
e 75 84
e 75 87
e 75 88
e 75 89
e 75 93
e 75 95
e 75 98
e 75 99
e 76 77
e 76 78
e 76 81
e 76 83
e 76 84
e 76 89
e 76 93
e 76 95
e 76 99
e 76 100
e 77 78
e 77 81
e 77 82
e 77 85
e 77 87
e 77 89
e 77 91
e 77 92
e 77 94
e 77 98
e 78 85
e 78 86
e 78 87
e 78 89
e 78 99
e 79 80
e 79 84
e 79 86
e 79 88
e 79 90
e 79 96
e 79 97
e 79 98
e 79 100
e 80 81
e 80 83
e 80 87
e 80 93
e 80 94
e 80 95
e 81 83
e 81 85
e 81 87
e 81 90
e 81 91
e 81 95
e 81 96
e 81 97
e 81 100
e 82 85
e 82 89
e 82 91
e 82 92
e 82 93
e 82 94
e 82 97
e 82 100
e 83 85
e 83 89
e 83 90
e 83 92
e 83 93
e 83 96
e 83 97
e 83 98
e 83 99
e 84 85
e 84 90
e 84 92
e 85 88
e 85 89
e 85 93
e 85 95
e 85 96
e 85 97
e 85 98
e 85 99
e 86 88
e 86 90
e 86 91
e 86 92
e 86 100
e 87 89
e 87 92
e 87 93
e 87 96
e 87 97
e 87 98
e 88 89
e 88 92
e 88 93
e 88 98
e 89 92
e 89 94
e 89 100
e 90 94
e 90 99
e 90 100
e 91 92
e 91 93
e 91 94
e 91 96
e 91 97
e 91 98
e 91 99
e 92 94
e 92 95
e 92 98
e 92 99
e 92 100
e 93 94
e 93 95
e 94 97
e 94 98
e 94 100
e 95 96
e 95 97
e 95 98
e 96 100
e 98 99